New structure
1.0
        0  1 1
        2  2 0
        -1 0 3
    C
    2
Direct
     0.666600009         0.333000033         0.000000000
     0.888889047         0.333000033         0.000000000

