Compound 2:vacuum(14.6):(Ta 3)(Se 4):hP(4):P3m1 (156):primitive
1.0
    3.4095615491    0.0000000000    0.0000000000
   -1.7047807746    2.9527669173    0.0000000000
    0.0000000000    0.0000000000   25.0000000000
  Ta  Se  
    3    4
Direct
  0.999997830900  0.000002169100  0.346236971600   T   T   T   ! Ta
  0.999997830900  0.000002169100  0.487211453000   T   T   T   ! Ta
  0.000002125300  0.999997874700  0.628190274400   T   T   T   ! Ta
  0.333331576600  0.666668424400  0.278408781900   T   T   T   ! Se
  0.333331854500  0.666668146500  0.416067230900   T   T   T   ! Se
  0.666668119000  0.333331919000  0.558365808000   T   T   T   ! Se
  0.666668519700  0.333331518300  0.696023785500   T   T   T   ! Se
